N = 5;
H = 5;
T = 2;

avail = array3d(1..N, 1..H, 1..T, [6, 8, 7, 5, 10, 7, 1, 3, 6, 5, 6, 3, 10, 5, 8, 10, 4, 5, 8, 4, 3, 6, 0, 0, 6, 2, 8, 9, 5, 5, 4, 1, 4, 2, 6, 9, 10, 8, 2, 0, 7, 5, 2, 8, 6, 0, 3, 5, 1, 9]);

r = array2d(1..H, 1..T, [2, 1, 1, 1, 0, 0, 1, 1, 2, 0]);
